Route #1: 41 14 13 38 9 36 22 2
Route #2: 34 19 28 7 15 8 31
Route #3: 17 3 25 29 43 6
Route #4: 27 5 21 32 42 37 33 24
Route #5: 39 30 23 40 12 4
Route #6: 1 35 18 20 16 11 10 26
cost 987.4938354492188